results_rootrelaxation/bin012_080_044.srr.sol
solution status: optimal solution found
objective value:                     16.3333333333333
_var711_                            0.333333333333333 	(obj:0)
_var750_                            0.333333333333333 	(obj:1)
_var751_                            0.333333333333333 	(obj:2)
_var777_                            0.333333333333333 	(obj:1)
_var783_                            0.166666666666666 	(obj:2)
_var790_                            0.666666666666666 	(obj:2)
_var815_                            0.333333333333333 	(obj:0)
_var821_                            0.333333333333333 	(obj:1)
_var822_                            0.166666666666667 	(obj:0)
_var824_                            0.166666666666666 	(obj:1)
_var830_                            0.166666666666667 	(obj:2)
_var837_                            0.166666666666666 	(obj:2)
_var838_                            0.333333333333334 	(obj:1)
_var845_                            0.333333333333334 	(obj:2)
_var848_                            0.333333333333334 	(obj:2)
_var853_                            0.166666666666667 	(obj:3)
_var855_                            0.166666666666666 	(obj:1)
_var857_                            0.166666666666667 	(obj:1)
_var858_                                            1 	(obj:2)
_var862_                            0.666666666666667 	(obj:2)
_var865_                            0.333333333333333 	(obj:1)
_var881_                            0.166666666666667 	(obj:1)
_var884_                                          0.5 	(obj:1)
_var893_                            0.166666666666667 	(obj:2)
_var895_                            0.166666666666666 	(obj:1)
_var898_                            0.166666666666667 	(obj:1)
_var900_                            0.499999999999999 	(obj:1)
_var906_                            0.166666666666668 	(obj:2)
_var910_                            0.166666666666667 	(obj:1)
_var917_                            0.166666666666668 	(obj:2)
_var921_                            0.166666666666667 	(obj:1)
_var922_                            0.166666666666667 	(obj:3)
_var925_                            0.166666666666666 	(obj:2)
_var929_                            0.166666666666667 	(obj:2)
_var931_                            0.166666666666666 	(obj:2)
_var938_                            0.166666666666666 	(obj:2)
_var950_                            0.166666666666667 	(obj:2)
_var951_                            0.166666666666667 	(obj:1)
_var952_                            0.333333333333334 	(obj:2)
_var957_                            0.166666666666667 	(obj:1)
