results_rootrelaxation/bin012_080_044.srr.log
SCIP version 8.0.3.5 [precision: 8 byte] [memory: block] [mode: optimized] [LP solver: Soplex 6.0.1.3] [GitHash: 438792519e]
Copyright (c) 2002-2023 Zuse Institute Berlin (ZIB)

External libraries: 
  Readline 8.1         GNU library for command line editing (gnu.org/s/readline)
  Soplex 6.0.1.3       Linear Programming Solver developed at Zuse Institute Berlin (soplex.zib.de) [GitHash: 713be0fe]
  CppAD 20180000.0     Algorithmic Differentiation of C++ algorithms developed by B. Bell (github.com/coin-or/CppAD)
  ZLIB 1.2.11          General purpose compression library by J. Gailly and M. Adler (zlib.net)
  bliss 0.77           Computing Graph Automorphism Groups by T. Junttila and P. Kaski (www.tcs.hut.fi/Software/bliss/)

user parameter file <scip.set> not found - using default parameters

srr/relaxation = TRUE

read problem <instances/bin012_080_044.srr>
============

Original problem: 
original problem has 0 variables (0 bin, 0 int, 0 impl, 0 cont) and 77 constraints

presolving:
presolving (1 rounds: 1 fast, 1 medium, 1 exhaustive):
 0 deleted vars, 0 deleted constraints, 0 added constraints, 0 tightened bounds, 0 added holes, 0 changed sides, 0 changed coefficients
 0 implications, 0 cliques
presolved problem has 0 variables (0 bin, 0 int, 0 impl, 0 cont) and 77 constraints
     77 constraints of type <linear>
Presolving Time: 0.00

 time | node  | left  |LP iter|LP it/n|mem/heur|mdpt |vars |cons |rows |cuts |sepa|confs|strbr|  dualbound   | primalbound  |  gap   | compl. 
  0.0s|     1 |     0 |     1 |     - |   710k |   0 |   1 |  77 |  77 |   0 |  0 |   0 |   0 |      --      |      --      |    Inf | unknown
r 0.1s|     1 |     0 |  1275 |     - |simplero|   0 | 704 |  77 |  77 |   0 |  0 |   0 |   0 |      --      | 3.557863e+01 |    Inf | unknown
r 0.1s|     1 |     0 |  1348 |     - |simplero|   0 | 715 |  77 |  77 |   0 |  0 |   0 |   0 |      --      | 3.276445e+01 |    Inf | unknown
r 0.1s|     1 |     0 |  1405 |     - |simplero|   0 | 726 |  77 |  77 |   0 |  0 |   0 |   0 |      --      | 3.111569e+01 |    Inf | unknown
r 0.1s|     1 |     0 |  1459 |     - |simplero|   0 | 737 |  77 |  77 |   0 |  0 |   0 |   0 |      --      | 2.969168e+01 |    Inf | unknown
r 0.1s|     1 |     0 |  1516 |     - |simplero|   0 | 748 |  77 |  77 |   0 |  0 |   0 |   0 |      --      | 2.871156e+01 |    Inf | unknown
r 0.1s|     1 |     0 |  1569 |     - |simplero|   0 | 759 |  77 |  77 |   0 |  0 |   0 |   0 |      --      | 2.707144e+01 |    Inf | unknown
r 0.1s|     1 |     0 |  1620 |     - |simplero|   0 | 770 |  77 |  77 |   0 |  0 |   0 |   0 |      --      | 2.613216e+01 |    Inf | unknown
r 0.1s|     1 |     0 |  1662 |     - |simplero|   0 | 781 |  77 |  77 |   0 |  0 |   0 |   0 |      --      | 2.415574e+01 |    Inf | unknown
r 0.1s|     1 |     0 |  1702 |     - |simplero|   0 | 781 |  77 |  77 |   0 |  0 |   0 |   0 |      --      | 2.342945e+01 |    Inf | unknown
r 0.1s|     1 |     0 |  1712 |     - |simplero|   0 | 781 |  77 |  77 |   0 |  0 |   0 |   0 |      --      | 2.339236e+01 |    Inf | unknown
r 0.1s|     1 |     0 |  1770 |     - |simplero|   0 | 792 |  77 |  77 |   0 |  0 |   0 |   0 |      --      | 2.157353e+01 |    Inf | unknown
r 0.1s|     1 |     0 |  1771 |     - |simplero|   0 | 792 |  77 |  77 |   0 |  0 |   0 |   0 |      --      | 2.157285e+01 |    Inf | unknown
r 0.1s|     1 |     0 |  1820 |     - |simplero|   0 | 803 |  77 |  77 |   0 |  0 |   0 |   0 |      --      | 2.087422e+01 |    Inf | unknown
r 0.1s|     1 |     0 |  1821 |     - |simplero|   0 | 803 |  77 |  77 |   0 |  0 |   0 |   0 |      --      | 2.087416e+01 |    Inf | unknown
 time | node  | left  |LP iter|LP it/n|mem/heur|mdpt |vars |cons |rows |cuts |sepa|confs|strbr|  dualbound   | primalbound  |  gap   | compl. 
r 0.1s|     1 |     0 |  1843 |     - |simplero|   0 | 814 |  77 |  77 |   0 |  0 |   0 |   0 |      --      | 2.056039e+01 |    Inf | unknown
r 0.1s|     1 |     0 |  1854 |     - |simplero|   0 | 814 |  77 |  77 |   0 |  0 |   0 |   0 |      --      | 2.050264e+01 |    Inf | unknown
r 0.1s|     1 |     0 |  1865 |     - |simplero|   0 | 814 |  77 |  77 |   0 |  0 |   0 |   0 |      --      | 2.047564e+01 |    Inf | unknown
r 0.1s|     1 |     0 |  1904 |     - |simplero|   0 | 825 |  77 |  77 |   0 |  0 |   0 |   0 |      --      | 1.978726e+01 |    Inf | unknown
r 0.1s|     1 |     0 |  1911 |     - |simplero|   0 | 825 |  77 |  77 |   0 |  0 |   0 |   0 |      --      | 1.976200e+01 |    Inf | unknown
r 0.1s|     1 |     0 |  1916 |     - |simplero|   0 | 825 |  77 |  77 |   0 |  0 |   0 |   0 |      --      | 1.975832e+01 |    Inf | unknown
r 0.1s|     1 |     0 |  1943 |     - |simplero|   0 | 836 |  77 |  77 |   0 |  0 |   0 |   0 |      --      | 1.943662e+01 |    Inf | unknown
r 0.1s|     1 |     0 |  1963 |     - |simplero|   0 | 836 |  77 |  77 |   0 |  0 |   0 |   0 |      --      | 1.926969e+01 |    Inf | unknown
r 0.1s|     1 |     0 |  1973 |     - |simplero|   0 | 836 |  77 |  77 |   0 |  0 |   0 |   0 |      --      | 1.924715e+01 |    Inf | unknown
r 0.1s|     1 |     0 |  2028 |     - |simplero|   0 | 847 |  77 |  77 |   0 |  0 |   0 |   0 |      --      | 1.883272e+01 |    Inf | unknown
r 0.1s|     1 |     0 |  2038 |     - |simplero|   0 | 847 |  77 |  77 |   0 |  0 |   0 |   0 |      --      | 1.880887e+01 |    Inf | unknown
r 0.1s|     1 |     0 |  2069 |     - |simplero|   0 | 858 |  77 |  77 |   0 |  0 |   0 |   0 |      --      | 1.843063e+01 |    Inf | unknown
r 0.1s|     1 |     0 |  2075 |     - |simplero|   0 | 858 |  77 |  77 |   0 |  0 |   0 |   0 |      --      | 1.835054e+01 |    Inf | unknown
r 0.1s|     1 |     0 |  2112 |     - |simplero|   0 | 868 |  77 |  77 |   0 |  0 |   0 |   0 |      --      | 1.773183e+01 |    Inf | unknown
r 0.1s|     1 |     0 |  2127 |     - |simplero|   0 | 868 |  77 |  77 |   0 |  0 |   0 |   0 |      --      | 1.766785e+01 |    Inf | unknown
 time | node  | left  |LP iter|LP it/n|mem/heur|mdpt |vars |cons |rows |cuts |sepa|confs|strbr|  dualbound   | primalbound  |  gap   | compl. 
r 0.1s|     1 |     0 |  2128 |     - |simplero|   0 | 868 |  77 |  77 |   0 |  0 |   0 |   0 |      --      | 1.766784e+01 |    Inf | unknown
  0.1s|     1 |     0 |  2176 |     - |  4233k |   0 | 879 |  77 |  77 |   0 |  0 |   0 |   0 |      --      | 1.766784e+01 |    Inf | unknown
r 0.1s|     1 |     0 |  2176 |     - |simplero|   0 | 879 |  77 |  77 |   0 |  0 |   0 |   0 |      --      | 1.739563e+01 |    Inf | unknown
r 0.1s|     1 |     0 |  2183 |     - |simplero|   0 | 879 |  77 |  77 |   0 |  0 |   0 |   0 |      --      | 1.737971e+01 |    Inf | unknown
r 0.1s|     1 |     0 |  2185 |     - |simplero|   0 | 879 |  77 |  77 |   0 |  0 |   0 |   0 |      --      | 1.737722e+01 |    Inf | unknown
r 0.1s|     1 |     0 |  2221 |     - |simplero|   0 | 890 |  77 |  77 |   0 |  0 |   0 |   0 |      --      | 1.708392e+01 |    Inf | unknown
r 0.1s|     1 |     0 |  2239 |     - |simplero|   0 | 890 |  77 |  77 |   0 |  0 |   0 |   0 |      --      | 1.701713e+01 |    Inf | unknown
r 0.1s|     1 |     0 |  2242 |     - |simplero|   0 | 890 |  77 |  77 |   0 |  0 |   0 |   0 |      --      | 1.701267e+01 |    Inf | unknown
r 0.1s|     1 |     0 |  2273 |     - |simplero|   0 | 901 |  77 |  77 |   0 |  0 |   0 |   0 |      --      | 1.678036e+01 |    Inf | unknown
r 0.1s|     1 |     0 |  2278 |     - |simplero|   0 | 901 |  77 |  77 |   0 |  0 |   0 |   0 |      --      | 1.677637e+01 |    Inf | unknown
r 0.1s|     1 |     0 |  2310 |     - |simplero|   0 | 911 |  77 |  77 |   0 |  0 |   0 |   0 |      --      | 1.657929e+01 |    Inf | unknown
r 0.1s|     1 |     0 |  2314 |     - |simplero|   0 | 911 |  77 |  77 |   0 |  0 |   0 |   0 |      --      | 1.657725e+01 |    Inf | unknown
r 0.1s|     1 |     0 |  2333 |     - |simplero|   0 | 920 |  77 |  77 |   0 |  0 |   0 |   0 |      --      | 1.651145e+01 |    Inf | unknown
r 0.1s|     1 |     0 |  2335 |     - |simplero|   0 | 920 |  77 |  77 |   0 |  0 |   0 |   0 |      --      | 1.651140e+01 |    Inf | unknown
r 0.1s|     1 |     0 |  2360 |     - |simplero|   0 | 928 |  77 |  77 |   0 |  0 |   0 |   0 |      --      | 1.645890e+01 |    Inf | unknown
 time | node  | left  |LP iter|LP it/n|mem/heur|mdpt |vars |cons |rows |cuts |sepa|confs|strbr|  dualbound   | primalbound  |  gap   | compl. 
r 0.1s|     1 |     0 |  2384 |     - |simplero|   0 | 934 |  77 |  77 |   0 |  0 |   0 |   0 |      --      | 1.641629e+01 |    Inf | unknown
r 0.1s|     1 |     0 |  2392 |     - |simplero|   0 | 934 |  77 |  77 |   0 |  0 |   0 |   0 |      --      | 1.641365e+01 |    Inf | unknown
r 0.1s|     1 |     0 |  2401 |     - |simplero|   0 | 934 |  77 |  77 |   0 |  0 |   0 |   0 |      --      | 1.640769e+01 |    Inf | unknown
r 0.1s|     1 |     0 |  2422 |     - |simplero|   0 | 941 |  77 |  77 |   0 |  0 |   0 |   0 |      --      | 1.636735e+01 |    Inf | unknown
r 0.1s|     1 |     0 |  2430 |     - |simplero|   0 | 941 |  77 |  77 |   0 |  0 |   0 |   0 |      --      | 1.636626e+01 |    Inf | unknown
r 0.1s|     1 |     0 |  2438 |     - |simplero|   0 | 948 |  77 |  77 |   0 |  0 |   0 |   0 |      --      | 1.636207e+01 |    Inf | unknown
r 0.1s|     1 |     0 |  2448 |     - |simplero|   0 | 951 |  77 |  77 |   0 |  0 |   0 |   0 |      --      | 1.635638e+01 |    Inf | unknown
r 0.1s|     1 |     0 |  2453 |     - |simplero|   0 | 951 |  77 |  77 |   0 |  0 |   0 |   0 |      --      | 1.635326e+01 |    Inf | unknown
r 0.1s|     1 |     0 |  2462 |     - |simplero|   0 | 954 |  77 |  77 |   0 |  0 |   0 |   0 |      --      | 1.634375e+01 |    Inf | unknown
r 0.1s|     1 |     0 |  2465 |     - |simplero|   0 | 954 |  77 |  77 |   0 |  0 |   0 |   0 |      --      | 1.634146e+01 |    Inf | unknown
r 0.1s|     1 |     0 |  2475 |     - |simplero|   0 | 958 |  77 |  77 |   0 |  0 |   0 |   0 |      --      | 1.633333e+01 |    Inf | unknown
  0.1s|     1 |     0 |  2479 |     - |  4562k |   0 | 961 |  77 |  77 |   0 |  0 |   0 |   0 | 1.633333e+01 | 1.633333e+01 |   0.00%| unknown
  0.1s|     1 |     0 |  2479 |     - |  4562k |   0 | 961 |  77 |  77 |   0 |  0 |   0 |   0 | 1.633333e+01 | 1.633333e+01 |   0.00%| unknown

SCIP Status        : problem is solved [optimal solution found]
Solving Time (sec) : 0.13
Solving Nodes      : 1
Primal Bound       : +1.63333333333333e+01 (54 solutions)
Dual Bound         : +1.63333333333333e+01
Gap                : 0.00 %

written transformed problem to file <results_rootrelaxation/bin012_080_044.srr.lp>
written transformed problem to file <results_rootrelaxation/bin012_080_044.srr.cip>

written solution information to file <results_rootrelaxation/bin012_080_044.srr.sol>



